Problem:    
Rows:       105
Columns:    45 (34 integer, 34 binary)
Non-zeros:  302
Status:     INTEGER OPTIMAL
Objective:  value = 125.35515 (MINimum)

   No.   Row name        Activity     Lower bound   Upper bound
------ ------------    ------------- ------------- -------------
     1 r.5                   125.355             0               
     2 r.6                   54.5101      -275.858               
     3 r.7                   625.355             0               
     4 r.8                  -374.645       -425.27               
     5 r.9                   625.355             0               
     6 r.10                 -423.013      -477.523               
     7 r.11                  125.355             0               
     8 r.12                  6.86095      -488.738               
     9 r.13                  625.355             0               
    10 r.14                 -374.645      -451.632               
    11 r.15                  125.355             0               
    12 r.16                 -4.40095      -484.339               
    13 r.17                  125.355             0               
    14 r.18                 -169.632      -366.882               
    15 r.19                  625.355             0               
    16 r.20                 -449.375      -456.236               
    17 r.21                  625.355             0               
    18 r.22                 -498.794      -498.794               
    19 r.23                  125.355             0               
    20 r.24                  1.20596      -498.138               
    21 r.25                        1             1             = 
    22 r.26                        1             1             = 
    23 r.27                        1             1             = 
    24 r.28                        1             1             = 
    25 r.29                        1             1             = 
    26 r.30                  22.4773       22.4773               
    27 r.31                 -22.4773      -275.858               
    28 r.32                  381.506       11.2619               
    29 r.33                 -381.506       -425.27               
    30 r.34                   70.845       48.3678               
    31 r.35                  -70.845      -275.858               
    32 r.36                  370.244       15.6614               
    33 r.37                 -370.244       -425.27               
    34 r.38                  275.858       133.118               
    35 r.39                 -275.858      -275.858               
    36 r.40                   425.27       43.7638               
    37 r.41                  -425.27       -425.27               
    38 r.42                  53.3042      -272.217               
    39 r.43                 -375.851      -419.615               
    40 r.44                  53.3042      -272.217               
    41 r.45                 -375.851      -419.615               
    42 r.46                  477.523       224.142               
    43 r.47                 -477.523      -477.523               
    44 r.48                  118.494       74.7304               
    45 r.49                 -118.494      -488.738               
    46 r.50                  48.3678       48.3678               
    47 r.51                 -48.3678      -477.523               
    48 r.52                  488.738       15.6614               
    49 r.53                 -488.738      -488.738               
    50 r.54                   253.38       133.118               
    51 r.55                  -253.38      -477.523               
    52 r.56                  43.7638       43.7638               
    53 r.57                 -43.7638      -488.738               
    54 r.58                 -424.219      -473.882               
    55 r.59                  5.65499      -483.083               
    56 r.60                 -424.219      -473.882               
    57 r.61                  5.65499      -483.083               
    58 r.62                  429.155       224.142               
    59 r.63                 -429.155      -451.632               
    60 r.64                  129.756       74.7304               
    61 r.65                 -129.756      -484.339               
    62 r.66                  451.632       22.4773               
    63 r.67                 -451.632      -451.632               
    64 r.68                  11.2619       11.2619               
    65 r.69                 -11.2619      -484.339               
    66 r.70                  205.013       133.118               
    67 r.71                 -205.013      -451.632               
    68 r.72                  55.0257       43.7638               
    69 r.73                 -55.0257      -484.339               
    70 r.74                 -375.851      -447.991               
    71 r.75                 -5.60691      -478.684               
    72 r.76                 -375.851      -447.991               
    73 r.77                 -5.60691      -478.684               
    74 r.78                  224.142       224.142               
    75 r.79                 -224.142      -366.882               
    76 r.80                  74.7304       74.7304               
    77 r.81                 -74.7304      -456.236               
    78 r.82                   246.62       22.4773               
    79 r.83                  -246.62      -366.882               
    80 r.84                  456.236       11.2619               
    81 r.85                 -456.236      -456.236               
    82 r.86                  294.987       48.3678               
    83 r.87                 -294.987      -366.882               
    84 r.88                  444.974       15.6614               
    85 r.89                 -444.974      -456.236               
    86 r.90                 -170.838      -363.242               
    87 r.91                 -450.581      -450.581               
    88 r.92                 -170.838      -363.242               
    89 r.93                 -450.581      -450.581               
    90 r.94                  53.3042      -272.217               
    91 r.95                 -375.851      -419.615               
    92 r.96                  53.3042      -272.217               
    93 r.97                 -375.851      -419.615               
    94 r.98                 -424.219      -473.882               
    95 r.99                  5.65499      -483.083               
    96 r.100                -424.219      -473.882               
    97 r.101                 5.65499      -483.083               
    98 r.102                -375.851      -447.991               
    99 r.103                -5.60691      -478.684               
   100 r.104                -375.851      -447.991               
   101 r.105                -5.60691      -478.684               
   102 r.106                -170.838      -363.242               
   103 r.107                -450.581      -450.581               
   104 r.108                -170.838      -363.242               
   105 r.109                -450.581      -450.581               

   No. Column name       Activity     Lower bound   Upper bound
------ ------------    ------------- ------------- -------------
     1 tt                    125.355             0               
     2 s_1_1        *              0             0             1 
     3 t_1_1                  70.845             0               
     4 s_2_1        *              1             0             1 
     5 t_2_1                       0             0               
     6 s_1_2        *              1             0             1 
     7 t_1_2                 48.3678             0               
     8 s_2_2        *              0             0             1 
     9 t_2_2                 118.494             0               
    10 s_1_3        *              1             0             1 
    11 t_1_3                       0             0               
    12 s_2_3        *              0             0             1 
    13 t_2_3                 129.756             0               
    14 s_1_4        *              0             0             1 
    15 t_1_4                 294.987             0               
    16 s_2_4        *              1             0             1 
    17 t_2_4                 74.7304             0               
    18 s_1_5        *              1             0             1 
    19 t_1_5                 124.149             0               
    20 s_2_5        *              0             0             1 
    21 t_2_5                 124.149             0               
    22 u_1_1_2      *              0             0             1 
    23 u_2_1_2      *              1             0             1 
    24 u_1_1_3      *              0             0             1 
    25 u_2_1_3      *              1             0             1 
    26 u_1_1_4      *              1             0             1 
    27 u_2_1_4      *              1             0             1 
    28 u_1_2_1      *              1             0             1 
    29 u_2_2_1      *              0             0             1 
    30 u_1_2_3      *              0             0             1 
    31 u_2_2_3      *              1             0             1 
    32 u_1_2_4      *              1             0             1 
    33 u_2_2_4      *              0             0             1 
    34 u_1_3_1      *              1             0             1 
    35 u_2_3_1      *              0             0             1 
    36 u_1_3_2      *              1             0             1 
    37 u_2_3_2      *              0             0             1 
    38 u_1_3_4      *              1             0             1 
    39 u_2_3_4      *              0             0             1 
    40 u_1_4_1      *              0             0             1 
    41 u_2_4_1      *              0             0             1 
    42 u_1_4_2      *              0             0             1 
    43 u_2_4_2      *              1             0             1 
    44 u_1_4_3      *              0             0             1 
    45 u_2_4_3      *              1             0             1 

Integer feasibility conditions:

KKT.PE: max.abs.err = 1.14e-13 on row 16
        max.rel.err = 9.88e-17 on row 16
        High quality

KKT.PB: max.abs.err = 5.68e-14 on row 35
        max.rel.err = 6.05e-16 on row 26
        High quality

End of output
